100
128
49
62
36
12
19
60
17
49
58
28
13
54
60
14
24
10
33
14
53
29
53
42
22
24
32
46
21
41
27
23
37
29
23
31
32
33
30
48
40
40
29
18
26
55
64
59
23
19
18
20
63
59
16
32
18
10
3
27
23
55
24
2
50
28
55
17
60
27
33
19
24
22
33
62
53
54
61
64
33
22
47
32
46
22
21
64
64
52
51
62
64
24
39
40
64
61
54
39
49
31